sat
(:added-eqs               14
 :arith-branch            130
 :arith-conflicts         11
 :arith-cube-calls        32
 :arith-cube-success      1
 :arith-dio-calls         5
 :arith-fixed-eqs         15
 :arith-gcd-calls         131
 :arith-lower             99
 :arith-make-feasible     170
 :arith-max-columns       212
 :arith-max-rows          84
 :arith-patches           131
 :arith-upper             226
 :conflicts               11
 :decisions               141
 :final-checks            131
 :max-memory              75.31
 :memory                  32.47
 :mk-bool-var             327
 :mk-clause               12
 :num-allocs              6198616456.00
 :num-checks              2
 :propagations            3
 :rlimit-count            16016339
 :sat-backjumps           47821
 :sat-backtracks          122
 :sat-conflicts           47943
 :sat-decisions           168799
 :sat-del-clause          15301
 :sat-elim-bool-vars-res  2817
 :sat-elim-clauses        935
 :sat-elim-literals       525
 :sat-minimized-lits      573470
 :sat-mk-clause-2ary      37026
 :sat-mk-clause-3ary      9943
 :sat-mk-clause-nary      138795
 :sat-mk-var              34436
 :sat-probing-assigned    217
 :sat-propagations-2ary   8355794
 :sat-propagations-nary   6945822
 :sat-restarts            6765
 :sat-scc-elim-binary     2
 :sat-scc-elim-vars       1
 :sat-subs-resolution     72
 :sat-subs-resolution-dyn 13701
 :sat-subsumed            103
 :sat-units               238
 :time                    7.17
 :total-time              7.17)
